RobustCbss/GLKH-1.1/TMP/mtspf.pid12103.atsp
NAME : mtspf.pid12103.gtsp
TYPE : ATSP
DIMENSION : 27
EDGE_WEIGHT_TYPE : EXPLICIT
EDGE_WEIGHT_FORMAT : FULL_MATRIX
EDGE_WEIGHT_SECTION
999999 5368709 5368709 5368714 5368715 5368714 5368713 5368718 5368717 5368718 5368719 5368728 5368727 5368728 5368729 5368722 5368721 5368722 5368723 5368735 5368734 5368735 5368736 5368753 5368752 5368753 5368754 
5368709 999999 5368709 5368745 5368746 5368745 5368744 5368741 5368742 5368741 5368740 5368735 5368736 5368737 5368736 5368745 5368746 5368745 5368744 5368752 5368753 5368754 5368753 5368740 5368741 5368742 5368741 
5368709 5368709 999999 5368728 5368729 5368730 5368729 5368736 5368735 5368736 5368737 5368736 5368735 5368736 5368737 5368740 5368739 5368740 5368741 5368753 5368752 5368753 5368754 5368741 5368740 5368741 5368742 
5368709 5368709 5368709 999999 0 10737418 10737418 5368720 5368721 5368722 5368721 5368732 5368731 5368730 5368731 5368724 5368725 5368726 5368725 5368737 5368738 5368739 5368738 5368757 5368756 5368755 5368756 
5368709 5368709 5368709 10737418 999999 0 10737418 5368721 5368722 5368723 5368722 5368731 5368730 5368731 5368732 5368725 5368726 5368727 5368726 5368738 5368739 5368740 5368739 5368756 5368755 5368756 5368757 
5368709 5368709 5368709 10737418 10737418 999999 0 5368722 5368721 5368722 5368723 5368732 5368731 5368732 5368733 5368726 5368725 5368726 5368727 5368739 5368738 5368739 5368740 5368757 5368756 5368757 5368758 
5368709 5368709 5368709 0 10737418 10737418 999999 5368721 5368720 5368721 5368722 5368733 5368732 5368731 5368732 5368725 5368724 5368725 5368726 5368738 5368737 5368738 5368739 5368758 5368757 5368756 5368757 
5368709 5368709 5368709 5368722 5368723 5368722 5368721 999999 0 10737418 10737418 5368728 5368727 5368726 5368727 5368714 5368715 5368716 5368715 5368727 5368728 5368729 5368728 5368753 5368752 5368751 5368752 
5368709 5368709 5368709 5368721 5368722 5368721 5368720 10737418 999999 0 10737418 5368727 5368726 5368727 5368728 5368715 5368716 5368717 5368716 5368728 5368729 5368730 5368729 5368752 5368751 5368752 5368753 
5368709 5368709 5368709 5368722 5368721 5368720 5368721 10737418 10737418 999999 0 5368728 5368727 5368728 5368729 5368714 5368715 5368716 5368715 5368729 5368728 5368729 5368730 5368753 5368752 5368753 5368754 
5368709 5368709 5368709 5368723 5368722 5368721 5368722 0 10737418 10737418 999999 5368729 5368728 5368727 5368728 5368713 5368714 5368715 5368714 5368728 5368727 5368728 5368729 5368754 5368753 5368752 5368753 
5368709 5368709 5368709 5368732 5368733 5368732 5368731 5368728 5368729 5368728 5368727 999999 0 10737418 10737418 5368732 5368733 5368732 5368731 5368727 5368728 5368729 5368728 5368737 5368736 5368735 5368736 
5368709 5368709 5368709 5368731 5368732 5368733 5368732 5368727 5368728 5368729 5368728 10737418 999999 0 10737418 5368731 5368732 5368733 5368732 5368728 5368729 5368730 5368729 5368736 5368735 5368736 5368737 
5368709 5368709 5368709 5368730 5368731 5368732 5368731 5368726 5368727 5368728 5368727 10737418 10737418 999999 0 5368730 5368731 5368732 5368731 5368729 5368728 5368729 5368730 5368737 5368736 5368737 5368738 
5368709 5368709 5368709 5368731 5368732 5368731 5368730 5368727 5368728 5368727 5368726 0 10737418 10737418 999999 5368731 5368732 5368731 5368730 5368728 5368727 5368728 5368729 5368738 5368737 5368736 5368737 
5368709 5368709 5368709 5368726 5368727 5368726 5368725 5368716 5368715 5368714 5368715 5368732 5368731 5368730 5368731 999999 0 10737418 10737418 5368729 5368728 5368727 5368728 5368757 5368756 5368755 5368756 
5368709 5368709 5368709 5368725 5368726 5368725 5368724 5368715 5368714 5368713 5368714 5368731 5368730 5368731 5368732 10737418 999999 0 10737418 5368728 5368727 5368728 5368729 5368756 5368755 5368756 5368757 
5368709 5368709 5368709 5368726 5368725 5368724 5368725 5368716 5368715 5368714 5368715 5368732 5368731 5368732 5368733 10737418 10737418 999999 0 5368729 5368728 5368729 5368730 5368757 5368756 5368757 5368758 
5368709 5368709 5368709 5368727 5368726 5368725 5368726 5368717 5368716 5368715 5368716 5368733 5368732 5368731 5368732 0 10737418 10737418 999999 5368730 5368729 5368728 5368729 5368758 5368757 5368756 5368757 
5368709 5368709 5368709 5368739 5368740 5368739 5368738 5368729 5368730 5368729 5368728 5368729 5368730 5368729 5368728 5368729 5368730 5368729 5368728 999999 0 10737418 10737418 5368740 5368739 5368738 5368739 
5368709 5368709 5368709 5368738 5368739 5368738 5368737 5368728 5368729 5368728 5368727 5368728 5368729 5368728 5368727 5368728 5368729 5368730 5368729 10737418 999999 0 10737418 5368739 5368738 5368739 5368740 
5368709 5368709 5368709 5368739 5368738 5368737 5368738 5368729 5368728 5368727 5368728 5368729 5368728 5368727 5368728 5368727 5368728 5368729 5368728 10737418 10737418 999999 0 5368740 5368739 5368740 5368741 
5368709 5368709 5368709 5368740 5368739 5368738 5368739 5368730 5368729 5368728 5368729 5368730 5368729 5368728 5368729 5368728 5368729 5368728 5368727 0 10737418 10737418 999999 5368741 5368740 5368739 5368740 
5368709 5368709 5368709 5368757 5368758 5368757 5368756 5368753 5368754 5368753 5368752 5368737 5368738 5368737 5368736 5368757 5368758 5368757 5368756 5368740 5368741 5368740 5368739 999999 0 10737418 10737418 
5368709 5368709 5368709 5368756 5368757 5368758 5368757 5368752 5368753 5368754 5368753 5368736 5368737 5368738 5368737 5368756 5368757 5368758 5368757 5368739 5368740 5368741 5368740 10737418 999999 0 10737418 
5368709 5368709 5368709 5368755 5368756 5368757 5368756 5368751 5368752 5368753 5368752 5368735 5368736 5368737 5368736 5368755 5368756 5368757 5368756 5368738 5368739 5368740 5368739 10737418 10737418 999999 0 
5368709 5368709 5368709 5368756 5368757 5368756 5368755 5368752 5368753 5368752 5368751 5368736 5368737 5368736 5368735 5368756 5368757 5368756 5368755 5368739 5368740 5368739 5368738 0 10737418 10737418 999999 
EOF
