GLKH-1.1/TMP/mtspf.pid12103.tour
NAME : mtspf.pid12103.gtsp.48318466.tour
COMMENT : Length = 48318466
COMMENT : Found by LKH [Keld Helsgaun] Tue Mar  4 18:52:15 2025
TYPE : TOUR
DIMENSION : 27
TOUR_SECTION
1
6
7
4
5
8
9
10
11
16
17
18
19
22
23
20
21
15
12
13
14
25
26
27
24
3
2
-1
EOF
